NAME          DCAP_2_4_3_200_SS57
ROWS
 N  OBJ
 L  CON1
 L  CON2
 L  CON3
 L  CON4
 L  CON5
 L  CON6
 L  CON7
 L  CON8
 L  CON9
 L  CON10
 L  CON11
 L  CON12
 E  CON13
 E  CON14
 E  CON15
 E  CON16
 E  CON17
 E  CON18
 E  CON19
 E  CON20
 E  CON21
 E  CON22
 E  CON23
 E  CON24
COLUMNS
    x[1,1]    OBJ       6.180167      CON1      1.000000    
    x[1,1]    CON7      -1.000000     CON8      -1.000000   
    x[1,1]    CON9      -1.000000   
    x[1,2]    OBJ       6.563535      CON2      1.000000    
    x[1,2]    CON8      -1.000000     CON9      -1.000000   
    x[1,3]    OBJ       7.443064      CON3      1.000000    
    x[1,3]    CON9      -1.000000   
    x[2,1]    OBJ       6.732585      CON4      1.000000    
    x[2,1]    CON10     -1.000000     CON11     -1.000000   
    x[2,1]    CON12     -1.000000   
    x[2,2]    OBJ       5.039546      CON5      1.000000    
    x[2,2]    CON11     -1.000000     CON12     -1.000000   
    x[2,3]    OBJ       6.054841      CON6      1.000000    
    x[2,3]    CON12     -1.000000   
    MARKER    'MARKER'                'INTORG'
    u[1,1]    OBJ       48.076654     CON1      -1.000000   
    u[1,2]    OBJ       20.066487     CON2      -1.000000   
    u[1,3]    OBJ       32.230043     CON3      -1.000000   
    u[2,1]    OBJ       49.996186     CON4      -1.000000   
    u[2,2]    OBJ       49.466655     CON5      -1.000000   
    u[2,3]    OBJ       27.484319     CON6      -1.000000   
    y[1,1,1]  OBJ       8.836292      CON7      1.149564    
    y[1,1,1]  CON13     1.000000    
    y[1,1,2]  OBJ       9.255381      CON8      0.879286    
    y[1,1,2]  CON14     1.000000    
    y[1,1,3]  OBJ       9.077761      CON9      1.133785    
    y[1,1,3]  CON15     1.000000    
    y[1,2,1]  OBJ       7.623604      CON7      0.533331    
    y[1,2,1]  CON16     1.000000    
    y[1,2,2]  OBJ       5.385727      CON8      0.827217    
    y[1,2,2]  CON17     1.000000    
    y[1,2,3]  OBJ       8.523254      CON9      1.150907    
    y[1,2,3]  CON18     1.000000    
    y[1,3,1]  OBJ       8.235530      CON7      1.130839    
    y[1,3,1]  CON19     1.000000    
    y[1,3,2]  OBJ       9.678031      CON8      1.405788    
    y[1,3,2]  CON20     1.000000    
    y[1,3,3]  OBJ       5.183122      CON9      1.253365    
    y[1,3,3]  CON21     1.000000    
    y[1,4,1]  OBJ       6.693536      CON7      1.118303    
    y[1,4,1]  CON22     1.000000    
    y[1,4,2]  OBJ       7.127671      CON8      0.723520    
    y[1,4,2]  CON23     1.000000    
    y[1,4,3]  OBJ       7.992854      CON9      0.827947    
    y[1,4,3]  CON24     1.000000    
    y[2,1,1]  OBJ       8.479941      CON10     1.149564    
    y[2,1,1]  CON13     1.000000    
    y[2,1,2]  OBJ       6.353670      CON11     0.879286    
    y[2,1,2]  CON14     1.000000    
    y[2,1,3]  OBJ       6.157159      CON12     1.133785    
    y[2,1,3]  CON15     1.000000    
    y[2,2,1]  OBJ       7.135373      CON10     0.533331    
    y[2,2,1]  CON16     1.000000    
    y[2,2,2]  OBJ       8.122199      CON11     0.827217    
    y[2,2,2]  CON17     1.000000    
    y[2,2,3]  OBJ       6.640588      CON12     1.150907    
    y[2,2,3]  CON18     1.000000    
    y[2,3,1]  OBJ       5.991959      CON10     1.130839    
    y[2,3,1]  CON19     1.000000    
    y[2,3,2]  OBJ       9.639168      CON11     1.405788    
    y[2,3,2]  CON20     1.000000    
    y[2,3,3]  OBJ       9.338833      CON12     1.253365    
    y[2,3,3]  CON21     1.000000    
    y[2,4,1]  OBJ       6.683120      CON10     1.118303    
    y[2,4,1]  CON22     1.000000    
    y[2,4,2]  OBJ       6.576817      CON11     0.723520    
    y[2,4,2]  CON23     1.000000    
    y[2,4,3]  OBJ       7.304355      CON12     0.827947    
    y[2,4,3]  CON24     1.000000    
    z[1,1]    OBJ       973.246932    CON13     1.000000    
    z[1,2]    OBJ       599.404593    CON14     1.000000    
    z[1,3]    OBJ       966.242451    CON15     1.000000    
    z[2,1]    OBJ       587.571548    CON16     1.000000    
    z[2,2]    OBJ       976.851547    CON17     1.000000    
    z[2,3]    OBJ       900.189579    CON18     1.000000    
    z[3,1]    OBJ       546.016483    CON19     1.000000    
    z[3,2]    OBJ       685.295710    CON20     1.000000    
    z[3,3]    OBJ       678.184226    CON21     1.000000    
    z[4,1]    OBJ       868.711350    CON22     1.000000    
    z[4,2]    OBJ       700.155244    CON23     1.000000    
    z[4,3]    OBJ       897.643138    CON24     1.000000    
    MARKER    'MARKER'                 'INTEND'
RHS
    RHS       CON1      -0.000000     CON2      -0.000000   
    RHS       CON3      -0.000000     CON4      -0.000000   
    RHS       CON5      -0.000000     CON6      -0.000000   
    RHS       CON7      -0.000000     CON8      -0.000000   
    RHS       CON9      -0.000000     CON10     -0.000000   
    RHS       CON11     -0.000000     CON12     -0.000000   
    RHS       CON13     1.000000      CON14     1.000000    
    RHS       CON15     1.000000      CON16     1.000000    
    RHS       CON17     1.000000      CON18     1.000000    
    RHS       CON19     1.000000      CON20     1.000000    
    RHS       CON21     1.000000      CON22     1.000000    
    RHS       CON23     1.000000      CON24     1.000000    
BOUNDS
 BV BOUND     u[1,1]  
 BV BOUND     u[1,2]  
 BV BOUND     u[1,3]  
 BV BOUND     u[2,1]  
 BV BOUND     u[2,2]  
 BV BOUND     u[2,3]  
 BV BOUND     y[1,1,1]
 BV BOUND     y[1,1,2]
 BV BOUND     y[1,1,3]
 BV BOUND     y[1,2,1]
 BV BOUND     y[1,2,2]
 BV BOUND     y[1,2,3]
 BV BOUND     y[1,3,1]
 BV BOUND     y[1,3,2]
 BV BOUND     y[1,3,3]
 BV BOUND     y[1,4,1]
 BV BOUND     y[1,4,2]
 BV BOUND     y[1,4,3]
 BV BOUND     y[2,1,1]
 BV BOUND     y[2,1,2]
 BV BOUND     y[2,1,3]
 BV BOUND     y[2,2,1]
 BV BOUND     y[2,2,2]
 BV BOUND     y[2,2,3]
 BV BOUND     y[2,3,1]
 BV BOUND     y[2,3,2]
 BV BOUND     y[2,3,3]
 BV BOUND     y[2,4,1]
 BV BOUND     y[2,4,2]
 BV BOUND     y[2,4,3]
 BV BOUND     z[1,1]  
 BV BOUND     z[1,2]  
 BV BOUND     z[1,3]  
 BV BOUND     z[2,1]  
 BV BOUND     z[2,2]  
 BV BOUND     z[2,3]  
 BV BOUND     z[3,1]  
 BV BOUND     z[3,2]  
 BV BOUND     z[3,3]  
 BV BOUND     z[4,1]  
 BV BOUND     z[4,2]  
 BV BOUND     z[4,3]  
ENDATA
